! ExtOpt opt
%method
  ProgExt "/home/x_rompe/test/orca_oqp/oqp_orca_wrapper"
  Ext_Params "2 6-31g*"
end
%pal
nprocs 16
end
%maxcore 48000
*xyz 0 1
C        0.795420068     -0.972554911     -1.403361358
C       -0.360648624     -1.327245270     -0.705197358
C        1.951488761     -0.617864552     -0.705197358
H       -1.260073731     -1.603195493     -1.248370358
H        2.850913868     -0.341914328     -1.248370358
C       -0.360648624     -1.327245270      0.691132642
C        1.951488761     -0.617864552      0.691132642
H       -1.260073731     -1.603195493      1.234305642
H        2.850913868     -0.341914328      1.234305642
C        0.795420068     -0.972554911      1.389296642
H        0.795420068     -0.972554911      2.475643642
H        0.795420068     -0.972554911     -2.489708358
*