! ExtOpt opt
%method
  ProgExt "/home/x_rompe/bin/ExtOptORCA-OpenQP/oqp_orca_wrapper"
  Ext_Params "1 6-31g*"
end
%geom
  Scan
  D 0 1 2 3 = 180.0, 0.0, 18
  end
end
%pal
nprocs 8
end
%maxcore 3000
*xyz 0 1
 C          1.8713609950       -0.4318096607        0.1674402115
 C          0.4291302044       -0.5163591850        0.0281993765
 C         -0.4247707642        0.5121206455       -0.0738861145
 C         -1.8669192328        0.4289274897       -0.2142114012
 C         -2.5696978689       -0.7779809830       -0.2642420332
 C         -3.9437300212       -0.7919752544       -0.3983650985
 C         -4.6534705286        0.3949958536       -0.4857843043
 C         -3.9739003283        1.6009689294       -0.4385012096
 C         -2.5998430810        1.6164949653       -0.3046189584
 C          2.5696700854        0.7760990974        0.2473590205
 C          3.9440953125        0.7920531346        0.3774735115
 C          4.6586889964       -0.3939987095        0.4318669598
 C          3.9834881101       -1.6009650925        0.3556784235
 C          2.6089624527       -1.6184485588        0.2260954140
 H          0.0461172127       -1.5283548084        0.0054080409
 H         -0.0408850804        1.5238048377       -0.0551405289
 H         -2.0390996916       -1.7153030598       -0.1982068109
 H         -4.4683300275       -1.7360842263       -0.4347282961
 H         -5.7283952565        0.3793531681       -0.5897211745
 H         -4.5187140004        2.5316715867       -0.5060113163
 H         -2.0774044894        2.5625180160       -0.2684761407
 H          2.0351593909        1.7127404260        0.2092224673
 H          4.4649888630        1.7369675099        0.4379591663
 H          5.7338415114       -0.3768405101        0.5338043016
 H          4.5320737046       -2.5309534440        0.3983311897
 H          2.0900736116       -2.5652936831        0.1676231856
*